c colouring generated by benchmark framework
p edge 125 6961
v 1 34
v 2 33
v 3 18
v 4 19
v 5 29
v 6 35
v 7 35
v 8 34
v 9 7
v 10 48
v 11 8
v 12 32
v 13 5
v 14 17
v 15 33
v 16 13
v 17 40
v 18 20
v 19 45
v 20 54
v 21 31
v 22 19
v 23 21
v 24 9
v 25 47
v 26 14
v 27 6
v 28 14
v 29 31
v 30 10
v 31 38
v 32 1
v 33 56
v 34 2
v 35 21
v 36 17
v 37 3
v 38 49
v 39 37
v 40 43
v 41 19
v 42 42
v 43 42
v 44 20
v 45 47
v 46 24
v 47 52
v 48 38
v 49 44
v 50 41
v 51 57
v 52 40
v 53 8
v 54 32
v 55 7
v 56 24
v 57 25
v 58 12
v 59 36
v 60 51
v 61 27
v 62 51
v 63 53
v 64 56
v 65 9
v 66 39
v 67 8
v 68 23
v 69 52
v 70 11
v 71 37
v 72 28
v 73 11
v 74 0
v 75 23
v 76 21
v 77 1
v 78 15
v 79 4
v 80 35
v 81 2
v 82 10
v 83 5
v 84 25
v 85 39
v 86 47
v 87 30
v 88 22
v 89 16
v 90 22
v 91 3
v 92 13
v 93 9
v 94 26
v 95 46
v 96 26
v 97 37
v 98 29
v 99 34
v 100 29
v 101 0
v 102 55
v 103 30
v 104 58
v 105 23
v 106 45
v 107 28
v 108 4
v 109 59
v 110 15
v 111 33
v 112 14
v 113 18
v 114 7
v 115 28
v 116 6
v 117 46
v 118 20
v 119 41
v 120 50
v 121 31
v 122 16
v 123 12
v 124 43
v 125 49
